(set-info :smt-lib-version 2.6)
(set-logic QF_NIA)
(set-info :source |AProve team, see http://aprove.informatik.rwth-aachen.de/, submitted for SMT-COMP 2014|)
(set-info :category "industrial")
(set-info :status sat)
(declare-fun a__4 () Int)
(declare-fun a__2 () Int)
(declare-fun a__8 () Int)
(declare-fun a__12 () Int)
(declare-fun a__16 () Int)
(declare-fun a__20 () Int)
(declare-fun a__23 () Int)
(declare-fun a__25 () Int)
(declare-fun a__28 () Int)
(declare-fun a__31 () Int)
(declare-fun a__33 () Int)
(declare-fun a__36 () Int)
(declare-fun a__38 () Int)
(declare-fun a__41 () Int)
(declare-fun a__44 () Int)
(declare-fun a__46 () Int)
(declare-fun a__49 () Int)
(declare-fun a__52 () Int)
(declare-fun a__54 () Int)
(declare-fun a__58 () Int)
(declare-fun a__62 () Int)
(declare-fun a__66 () Int)
(declare-fun a__70 () Int)
(declare-fun a__73 () Int)
(declare-fun a__75 () Int)
(declare-fun a__78 () Int)
(declare-fun a__80 () Int)
(declare-fun a__83 () Int)
(declare-fun a__85 () Int)
(declare-fun a__87 () Int)
(declare-fun a__89 () Int)
(declare-fun a__93 () Int)
(declare-fun a__97 () Int)
(declare-fun a__101 () Int)
(declare-fun a__105 () Int)
(declare-fun a__108 () Int)
(declare-fun a__110 () Int)
(declare-fun a__3 () Int)
(declare-fun a__7 () Int)
(declare-fun a__11 () Int)
(declare-fun a__15 () Int)
(declare-fun a__19 () Int)
(declare-fun a__22 () Int)
(declare-fun a__24 () Int)
(declare-fun a__27 () Int)
(declare-fun a__30 () Int)
(declare-fun a__32 () Int)
(declare-fun a__35 () Int)
(declare-fun a__37 () Int)
(declare-fun a__40 () Int)
(declare-fun a__43 () Int)
(declare-fun a__45 () Int)
(declare-fun a__48 () Int)
(declare-fun a__51 () Int)
(declare-fun a__53 () Int)
(declare-fun a__57 () Int)
(declare-fun a__61 () Int)
(declare-fun a__65 () Int)
(declare-fun a__69 () Int)
(declare-fun a__72 () Int)
(declare-fun a__74 () Int)
(declare-fun a__77 () Int)
(declare-fun a__79 () Int)
(declare-fun a__82 () Int)
(declare-fun a__84 () Int)
(declare-fun a__86 () Int)
(declare-fun a__88 () Int)
(declare-fun a__92 () Int)
(declare-fun a__96 () Int)
(declare-fun a__100 () Int)
(declare-fun a__104 () Int)
(declare-fun a__107 () Int)
(declare-fun a__109 () Int)
(assert (and (>= (+ (* a__4 a__2) (* (- 0 1) a__2)) 0) (>= (+ (* a__8 a__2) (* (- 0 1) a__2)) 0) (>= (+ (* a__12 a__2) (* (- 0 1) a__2)) 0) (>= (+ (* a__16 a__2) (* (- 0 1) a__2)) 0) (>= (+ (* a__20 a__2) (* (- 0 1) a__2)) 0) (>= (+ (* a__23 a__2) (* (- 0 1) a__2)) 0) (>= (+ (* a__25 a__2) (* (- 0 1) a__2)) 0) (>= (+ (* a__28 a__2) (* (- 0 1) a__2)) 0) (>= (+ (* a__31 a__2) (* (- 0 1) a__2)) 0) (>= (+ (* a__33 a__2) (* (- 0 1) a__2)) 0) (>= (+ (* a__36 a__2) (* (- 0 1) a__2)) 0) (>= (+ (* a__38 a__2) (* (- 0 1) a__2)) 0) (>= (+ (* a__41 a__2) (* (- 0 1) a__2)) 0) (>= (+ (* a__44 a__2) (* (- 0 1) a__2)) 0) (>= (+ (* a__46 a__2) (* (- 0 1) a__2)) 0) (>= (+ (* a__49 a__2) (* (- 0 1) a__2)) 0) (>= (+ (* a__52 a__2) (* (- 0 1) a__2)) 0) (>= (+ (* a__54 a__2) (* (- 0 1) a__2)) 0) (>= (+ (* a__58 a__2) (* (- 0 1) a__2)) 0) (>= (+ (* a__62 a__2) (* (- 0 1) a__2)) 0) (>= (+ (* a__66 a__2) (* (- 0 1) a__2)) 0) (>= (+ (* a__70 a__2) (* (- 0 1) a__2)) 0) (>= (+ (* a__73 a__2) (* (- 0 1) a__2)) 0) (>= (+ (* a__75 a__2) (* (- 0 1) a__2)) 0) (>= (+ (* a__78 a__2) (* (- 0 1) a__2)) 0) (>= (+ (* a__80 a__2) (* (- 0 1) a__2)) 0) (>= (+ (* a__83 a__2) (* (- 0 1) a__2)) 0) (>= (+ (* a__85 a__2) (* (- 0 1) a__2)) 0) (>= (+ (* a__87 a__2) (* (- 0 1) a__2)) 0) (>= (+ (* a__89 a__2) (* (- 0 1) a__2)) 0) (>= (+ (* a__93 a__2) (* (- 0 1) a__2)) 0) (>= (+ (* a__97 a__2) (* (- 0 1) a__2)) 0) (>= (+ (* a__101 a__2) (* (- 0 1) a__2)) 0) (>= (+ (* a__105 a__2) (* (- 0 1) a__2)) 0) (>= (+ (* a__108 a__2) (* (- 0 1) a__2)) 0) (>= (+ (* a__110 a__2) (* (- 0 1) a__2)) 0) (>= (* a__3 a__2) 0) (>= (* a__7 a__2) 0) (>= (* a__11 a__2) 0) (>= (* a__15 a__2) 0) (>= (* a__19 a__2) 0) (>= (* a__22 a__2) 0) (>= (* a__24 a__2) 0) (>= (* a__27 a__2) 0) (>= (* a__30 a__2) 0) (>= (* a__32 a__2) 0) (>= (* a__35 a__2) 0) (>= (* a__37 a__2) 0) (>= (* a__40 a__2) 0) (>= (* a__43 a__2) 0) (>= (* a__45 a__2) 0) (>= (* a__48 a__2) 0) (>= (* a__51 a__2) 0) (>= (* a__53 a__2) 0) (>= (* a__57 a__2) 0) (>= (* a__61 a__2) 0) (>= (* a__65 a__2) 0) (>= (* a__69 a__2) 0) (>= (* a__72 a__2) 0) (>= (* a__74 a__2) 0) (>= (* a__77 a__2) 0) (>= (* a__79 a__2) 0) (>= (* a__82 a__2) 0) (>= (* a__84 a__2) 0) (>= (* a__86 a__2) 0) (>= (* a__88 a__2) 0) (>= (* a__92 a__2) 0) (>= (* a__96 a__2) 0) (>= (* a__100 a__2) 0) (>= (* a__104 a__2) 0) (>= (* a__107 a__2) 0) (>= (* a__109 a__2) 0) (not (and (= (* a__3 a__2) 0) (= (* a__7 a__2) 0) (= (* a__11 a__2) 0) (= (* a__15 a__2) 0) (= (* a__19 a__2) 0) (= (* a__22 a__2) 0) (= (* a__24 a__2) 0) (= (* a__27 a__2) 0) (= (* a__30 a__2) 0) (= (* a__32 a__2) 0) (= (* a__35 a__2) 0) (= (* a__37 a__2) 0) (= (* a__40 a__2) 0) (= (* a__43 a__2) 0) (= (* a__45 a__2) 0) (= (* a__48 a__2) 0) (= (* a__51 a__2) 0) (= (* a__53 a__2) 0) (= (* a__57 a__2) 0) (= (* a__61 a__2) 0) (= (* a__65 a__2) 0) (= (* a__69 a__2) 0) (= (* a__72 a__2) 0) (= (* a__74 a__2) 0) (= (* a__77 a__2) 0) (= (* a__79 a__2) 0) (= (* a__82 a__2) 0) (= (* a__84 a__2) 0) (= (* a__86 a__2) 0) (= (* a__88 a__2) 0) (= (* a__92 a__2) 0) (= (* a__96 a__2) 0) (= (* a__100 a__2) 0) (= (* a__104 a__2) 0) (= (* a__107 a__2) 0) (= (* a__109 a__2) 0))) (>= a__4 0) (>= a__2 0) (>= a__8 0) (>= a__12 0) (>= a__16 0) (>= a__20 0) (>= a__23 0) (>= a__25 0) (>= a__28 0) (>= a__31 0) (>= a__33 0) (>= a__36 0) (>= a__38 0) (>= a__41 0) (>= a__44 0) (>= a__46 0) (>= a__49 0) (>= a__52 0) (>= a__54 0) (>= a__58 0) (>= a__62 0) (>= a__66 0) (>= a__70 0) (>= a__73 0) (>= a__75 0) (>= a__78 0) (>= a__80 0) (>= a__83 0) (>= a__85 0) (>= a__87 0) (>= a__89 0) (>= a__93 0) (>= a__97 0) (>= a__101 0) (>= a__105 0) (>= a__108 0) (>= a__110 0) (>= a__3 0) (>= a__7 0) (>= a__11 0) (>= a__15 0) (>= a__19 0) (>= a__22 0) (>= a__24 0) (>= a__27 0) (>= a__30 0) (>= a__32 0) (>= a__35 0) (>= a__37 0) (>= a__40 0) (>= a__43 0) (>= a__45 0) (>= a__48 0) (>= a__51 0) (>= a__53 0) (>= a__57 0) (>= a__61 0) (>= a__65 0) (>= a__69 0) (>= a__72 0) (>= a__74 0) (>= a__77 0) (>= a__79 0) (>= a__82 0) (>= a__84 0) (>= a__86 0) (>= a__88 0) (>= a__92 0) (>= a__96 0) (>= a__100 0) (>= a__104 0) (>= a__107 0) (>= a__109 0)))
(check-sat)
;;(get-assignment)
;;(get-model)
(exit)
